
x = 100;
y = 200;
c = 20000;
n = 227;
w = [3025 2025 100 100 100 100 25 25 1296 1296 9 9 9 9 9 9 9 9 9 9 9 9 729 4 4 4 4 4 4 4 4 4 4 4 4 4 1 1 25 25 25 25 25 16 1 1 1 1 25 25 25 25 25 25 25 625 289 64 64 1 1 1 1 1 1 1 1 729 1 1 1 1 1 1 1 1 1 1 1 1 1 1 1 1 1 1 1 1 1 1 1 1 1 1 1 49 49 49 9 9 1 1 1 9 9 1 1 1 361 49 49 25 4 4 1 1 361 361 361 121 64 9 9 4 1 1 1296 49 49 49 49 49 1 1 1 1 1 1 1 64 64 64 64 16 16 4 4 4 1 1 9 1 1 1 16 25 4 4 1 1 49 16 9 1 1 1 484 9 9 9 9 9 9 9 1 1 1 361 9 9 9 9 9 9 1 1 1 256 100 36 16 4 4 676 36 1 1 1 1 1 1 36 36 676 289 81 64 1 1 1 1 1 1 1 1 1444 25 25 25 25 25 25 25 9 4 1 1];
p = [3025 2025 100 100 100 100 25 25 1296 1296 9 9 9 9 9 9 9 9 9 9 9 9 729 4 4 4 4 4 4 4 4 4 4 4 4 4 1 1 25 25 25 25 25 16 1 1 1 1 25 25 25 25 25 25 25 625 289 64 64 1 1 1 1 1 1 1 1 729 1 1 1 1 1 1 1 1 1 1 1 1 1 1 1 1 1 1 1 1 1 1 1 1 1 1 1 49 49 49 9 9 1 1 1 9 9 1 1 1 361 49 49 25 4 4 1 1 361 361 361 121 64 9 9 4 1 1 1296 49 49 49 49 49 1 1 1 1 1 1 1 64 64 64 64 16 16 4 4 4 1 1 9 1 1 1 16 25 4 4 1 1 49 16 9 1 1 1 484 9 9 9 9 9 9 9 1 1 1 361 9 9 9 9 9 9 1 1 1 256 100 36 16 4 4 676 36 1 1 1 1 1 1 36 36 676 289 81 64 1 1 1 1 1 1 1 1 1444 25 25 25 25 25 25 25 9 4 1 1];
s = [55 45 10 10 10 10 5 5 36 36 3 3 3 3 3 3 3 3 3 3 3 3 27 2 2 2 2 2 2 2 2 2 2 2 2 2 1 1 5 5 5 5 5 4 1 1 1 1 5 5 5 5 5 5 5 25 17 8 8 1 1 1 1 1 1 1 1 27 1 1 1 1 1 1 1 1 1 1 1 1 1 1 1 1 1 1 1 1 1 1 1 1 1 1 1 7 7 7 3 3 1 1 1 3 3 1 1 1 19 7 7 5 2 2 1 1 19 19 19 11 8 3 3 2 1 1 36 7 7 7 7 7 1 1 1 1 1 1 1 8 8 8 8 4 4 2 2 2 1 1 3 1 1 1 4 5 2 2 1 1 7 4 3 1 1 1 22 3 3 3 3 3 3 3 1 1 1 19 3 3 3 3 3 3 1 1 1 16 10 6 4 2 2 26 6 1 1 1 1 1 1 6 6 26 17 9 8 1 1 1 1 1 1 1 1 38 5 5 5 5 5 5 5 3 2 1 1];

